
<<< setup


<<< generate

Version identifier: 12.10.0.0 | 2019-11-26 | 843d4de2ae
CPXPARAM_TimeLimit                               1200
Tried aggregator 3 times.
MIP Presolve eliminated 5136622 rows and 2903123 columns.
MIP Presolve modified 433884 coefficients.
Aggregator did 901 substitutions.
Reduced MIP has 105527 rows, 107526 columns, and 684707 nonzeros.
Reduced MIP has 107476 binaries, 0 generals, 0 SOSs, and 0 indicators.
Presolve time = 8.01 sec. (4726.47 ticks)
Found incumbent of value 0.000000 after 13.01 sec. (6402.15 ticks)
Probing fixed 2849 vars, tightened 0 bounds.
Probing time = 46.52 sec. (8796.67 ticks)
Tried aggregator 2 times.
Detecting symmetries...
MIP Presolve eliminated 2843 rows and 2849 columns.
Aggregator did 1 substitutions.
Reduced MIP has 102683 rows, 104676 columns, and 665488 nonzeros.
Reduced MIP has 104626 binaries, 0 generals, 0 SOSs, and 0 indicators.
Presolve time = 0.81 sec. (447.38 ticks)
Probing fixed 178 vars, tightened 0 bounds.
Probing time = 10.53 sec. (1917.41 ticks)
Clique table members: 372794.
MIP emphasis: balance optimality and feasibility.
MIP search method: dynamic search.
Parallel mode: deterministic, using up to 4 threads.
Root relaxation solution time = 5.33 sec. (3325.11 ticks)

        Nodes                                         Cuts/
   Node  Left     Objective  IInf  Best Integer    Best Bound    ItCnt     Gap

*     0+    0                            0.0000   121009.0000              --- 
      0     0    66285.0000   655        0.0000    66285.0000     8643     --- 
*     0+    0                        29687.0000    66285.0000           123.28%
      0     0    66285.0000   655    29687.0000       Cuts: 9     8664  123.28%
      0     0    66285.0000   655    29687.0000    Cuts: 8249    13001  123.28%
      0     0    66285.0000   655    29687.0000      Cuts: 60    25584  123.28%
*     0+    0                        32150.0000    66285.0000           106.17%
Heuristic still looking.
Heuristic still looking.
Detecting symmetries...
      0     2    66285.0000   239    32150.0000    66285.0000    25584  106.17%
Elapsed time = 324.42 sec. (149993.42 ticks, tree = 0.02 MB, solutions = 3)
      1     3    66285.0000   229    32150.0000    66285.0000    25627  106.17%
      2     4    66285.0000   550    32150.0000    66285.0000    31647  106.17%
      3     5    66285.0000   476    32150.0000    66285.0000    32829  106.17%
      4     3    66285.0000   430    32150.0000    66285.0000    49505  106.17%
      7     8    66285.0000   758    32150.0000    66285.0000    71639  106.17%
      8     9    66285.0000   755    32150.0000    66285.0000    73220  106.17%
      9    10    66285.0000   754    32150.0000    66285.0000    74185  106.17%
     10     4    66285.0000   571    32150.0000    66285.0000    32268  106.17%
     11    11    66285.0000   683    32150.0000    66285.0000    74773  106.17%
     12     5    66285.0000   447    32150.0000    66285.0000    43684  106.17%
Elapsed time = 422.88 sec. (192672.07 ticks, tree = 0.02 MB, solutions = 3)
     13    12    66285.0000   425    32150.0000    66285.0000    91011  106.17%
     14     9    66285.0000   507    32150.0000    66285.0000    94485  106.17%
     15    10    66285.0000   785    32150.0000    66285.0000   108183  106.17%
     17    16    66285.0000   440    32150.0000    66285.0000   141747  106.17%
     18    16    66285.0000   451    32150.0000    66285.0000   128383  106.17%
     19    11    66285.0000   473    32150.0000    66285.0000   131202  106.17%
     20    17    66285.0000   460    32150.0000    66285.0000   164105  106.17%
     22    21    66285.0000   408    32150.0000    66285.0000   216638  106.17%
     24     6    66285.0000   657    32150.0000    66285.0000    71189  106.17%
     25    23    66285.0000   452    32150.0000    66285.0000   263973  106.17%
Elapsed time = 529.23 sec. (228324.12 ticks, tree = 2.82 MB, solutions = 3)
     26    23    66285.0000   418    32150.0000    66285.0000   283979  106.17%
     28    22    66285.0000   450    32150.0000    66285.0000   247734  106.17%
     29    24    66285.0000   514    32150.0000    66285.0000   286031  106.17%
     30    24    infeasible          32150.0000    66285.0000   326992  106.17%
     31    24    66285.0000   433    32150.0000    66285.0000   329624  106.17%
     32    23    infeasible          32150.0000    66285.0000   328231  106.17%
     33    27    66285.0000   408    32150.0000    66285.0000   383150  106.17%
     34    29    66285.0000   378    32150.0000    66285.0000   402295  106.17%
     35    29    66285.0000   395    32150.0000    66285.0000   455239  106.17%
     37    27    66285.0000   516    32150.0000    66285.0000   416870  106.17%
Elapsed time = 897.58 sec. (301433.97 ticks, tree = 4.38 MB, solutions = 3)
     39    29    66285.0000   542    32150.0000    66285.0000   481597  106.17%
     42    29    66285.0000   545    32150.0000    66285.0000   481604  106.17%
     43    30    66285.0000   544    32150.0000    66285.0000   481736  106.17%
     44    28    66285.0000   718    32150.0000    66285.0000   378467  106.17%
     45    31    66285.0000   726    32150.0000    66285.0000   487482  106.17%
     47    31    66285.0000   514    32150.0000    66285.0000   511698  106.17%
     49    34    66285.0000   518    32150.0000    66285.0000   519002  106.17%
     50    37    66285.0000   389    32150.0000    66285.0000   522761  106.17%
     52    28    66285.0000   521    32150.0000    66285.0000   445465  106.17%
     54    35    66285.0000   563    32150.0000    66285.0000   519979  106.17%
Elapsed time = 1097.51 sec. (331367.05 ticks, tree = 7.88 MB, solutions = 3)
     55    40    66285.0000   365    32150.0000    66285.0000   525178  106.17%
     59    40    66285.0000   364    32150.0000    66285.0000   525229  106.17%
     64    40    66285.0000   368    32150.0000    66285.0000   525253  106.17%
     69    40    66285.0000   370    32150.0000    66285.0000   525306  106.17%
     73    40    66285.0000   369    32150.0000    66285.0000   525345  106.17%
     77    40    66285.0000   375    32150.0000    66285.0000   525378  106.17%
     79    40    66285.0000   390    32150.0000    66285.0000   525474  106.17%
     81    40    66285.0000   388    32150.0000    66285.0000   525500  106.17%
     85    40    66285.0000   394    32150.0000    66285.0000   525509  106.17%
     88    41    66285.0000   381    32150.0000    66285.0000   525541  106.17%
Elapsed time = 1103.95 sec. (346315.25 ticks, tree = 12.20 MB, solutions = 3)
     90    37    66285.0000   388    32150.0000    66285.0000   529189  106.17%
     94    50    66285.0000   555    32150.0000    66285.0000   566469  106.17%
     96    44    66285.0000   433    32150.0000    66285.0000   563086  106.17%
     98    39    66285.0000   447    32150.0000    66285.0000   573545  106.17%
     99    52    66285.0000   423    32150.0000    66285.0000   599107  106.17%
    101    52    66285.0000   298    32150.0000    66285.0000   572037  106.17%
    102    43    66285.0000   464    32150.0000    66285.0000   576210  106.17%
    105    44    66285.0000   471    32150.0000    66285.0000   580005  106.17%
    112    44    66285.0000   483    32150.0000    66285.0000   582256  106.17%
    113    45    66285.0000   423    32150.0000    66285.0000   584831  106.17%
Elapsed time = 1177.55 sec. (371967.73 ticks, tree = 9.90 MB, solutions = 3)
    115    56    66285.0000   445    32150.0000    66285.0000   634350  106.17%
    117    58    66285.0000   401    32150.0000    66285.0000   667154  106.17%
    118    55    66285.0000   419    32150.0000    66285.0000   583642  106.17%
    120    58    66285.0000   436    32150.0000    66285.0000   642438  106.17%
    121    59    66285.0000   398    32150.0000    66285.0000   668479  106.17%
    122    60    66285.0000   403    32150.0000    66285.0000   670406  106.17%

Implied bound cuts applied:  180
Mixed integer rounding cuts applied:  1
Gomory fractional cuts applied:  1

Root node processing (before b&c):
  Real time             =  320.36 sec. (148789.83 ticks)
Parallel b&c, 4 threads:
  Real time             =  880.42 sec. (237270.48 ticks)
  Sync time (average)   =  188.55 sec.
  Wait time (average)   =    0.00 sec.
                          ------------
Total (root+branch&cut) = 1200.78 sec. (386060.32 ticks)

<<< solve


OBJECTIVE: 32150

<<< post process


<<< done

